71
danuglipron RDKit ETKDGv3+MMFF94 conformer 17 (cid=21, E_mmff=59.53 kcal/mol)
C      -4.98004051     0.19628759     1.48823281
C      -5.72907460     1.16886368     0.58164087
O      -5.31437284     0.43847468    -0.60053930
C      -4.33154593    -0.29725042     0.18549923
C      -4.38249553    -1.78105208    -0.13804169
N      -3.44021746    -2.55247599     0.65964084
C      -3.75709150    -3.25459739     1.80335738
C      -2.55080496    -3.81965097     2.20123115
C      -2.50040065    -4.61140242     3.35767541
C      -3.67735232    -4.81731980     4.08894812
C      -4.88764346    -4.24641854     3.67492673
C      -4.95012968    -3.45176148     2.51603681
C      -6.09604335    -4.50820469     4.49698986
O      -6.14360642    -5.19200372     5.50234603
O      -7.19493679    -3.89432503     4.02148032
N      -1.54751693    -3.48954642     1.33486936
C      -2.09138558    -2.72241858     0.40643901
C      -1.36026601    -2.13944145    -0.77793256
N      -0.10398981    -1.45598489    -0.41286118
C       0.69700016    -1.17856285    -1.60840064
C       2.05905444    -0.58654867    -1.24950791
C       1.98736245     0.61388976    -0.29774016
C       0.98144525     0.38337288     0.83650139
C      -0.33434106    -0.24723289     0.38218102
C       1.82840813     1.95122298    -1.00055773
N       2.87069695     2.80708678    -0.85059639
C       2.80458653     4.01254628    -1.45100251
C       1.72957495     4.42777410    -2.21261669
C       0.66221333     3.55370043    -2.36291469
C       0.71012543     2.30139463    -1.75216221
O       3.85598208     4.89989959    -1.33905616
C       4.92719173     4.44133798    -0.50540648
C       5.89334523     3.53526677    -1.23142188
C       6.54465247     2.51561849    -0.53253889
C       7.45104219     1.66577722    -1.16073292
C       7.72926427     1.83680939    -2.51770092
C       7.10208761     2.86475625    -3.23065420
C       6.19383953     3.71288918    -2.58967528
C       8.65824268     0.96731633    -3.17684729
N       9.41191280     0.26636803    -3.71299079
F       6.31051034     2.34557720     0.77639030
H      -4.29615984     0.65651935     2.20505960
H      -5.62957833    -0.51911767     1.99809314
H      -6.81586923     1.17472082     0.69758042
H      -5.34586078     2.19352877     0.56800829
H      -3.33992997     0.13724393     0.00987504
H      -4.14546839    -1.96312567    -1.19188051
H      -5.38549754    -2.19043631     0.02492224
H      -1.56017949    -5.05334709     3.66999015
H      -3.63984832    -5.43216740     4.98676712
H      -5.88562984    -3.01256006     2.18724608
H      -7.89636301    -4.15941174     4.65352334
H      -1.13244761    -2.98929366    -1.43497699
H      -1.99474809    -1.45938128    -1.35556831
H       0.88077930    -2.11347020    -2.15313228
H       0.15914309    -0.52056878    -2.29940274
H       2.60452036    -0.32865387    -2.16560688
H       2.64461875    -1.37496426    -0.75590808
H       2.97454346     0.66817717     0.18658222
H       0.77802720     1.31705414     1.37517014
H       1.44261005    -0.29738261     1.56588116
H      -0.90365587    -0.48810671     1.28792728
H      -0.93433172     0.48007510    -0.17439172
H       1.72525082     5.40623595    -2.67782130
H      -0.20202384     3.84283236    -2.95422884
H      -0.12730746     1.62900069    -1.88025971
H       5.48681111     5.33527832    -0.20366809
H       4.54800371     3.99991410     0.42539597
H       7.92893515     0.88157285    -0.57998575
H       7.31344522     3.01232560    -4.28858554
H       5.71292794     4.50747622    -3.15740380
