71
danuglipron RDKit ETKDGv3+MMFF94 conformer 16 (cid=32, E_mmff=59.11 kcal/mol)
C      -7.08518016    -1.05060849     1.11571232
C      -8.02072569    -0.83079538    -0.06993874
O      -6.89705795    -0.75189292    -0.98333648
C      -5.97948688    -0.61408305     0.14136720
C      -4.76897929    -1.51580275    -0.03790330
N      -3.84564471    -1.42308315     1.08336764
C      -3.79407800    -2.29672372     2.14829783
C      -2.79571272    -1.77824866     2.96586854
C      -2.47738793    -2.42340117     4.16977360
C      -3.17620226    -3.58594893     4.52013094
C      -4.17675372    -4.10038851     3.68546372
C      -4.50485597    -3.46160492     2.47618516
C      -4.87522926    -5.33662742     4.11951234
O      -4.65176007    -5.96460448     5.13750728
O      -5.82934762    -5.72868109     3.25572311
N      -2.25419177    -0.64764639     2.42090384
C      -2.87472949    -0.45758568     1.26968658
C      -2.57952685     0.66179061     0.30612585
N      -1.27682948     0.50325630    -0.35215826
C      -1.21105653    -0.58946288    -1.31306517
C       0.25159073    -0.89898433    -1.66218804
C       1.13508912     0.35874451    -1.78498143
C       0.27248240     1.60900144    -1.99456209
C      -0.80511848     1.77448516    -0.91557994
C       2.13812279     0.57159946    -0.66224269
N       3.32516967     1.11334258    -1.04189234
C       4.24781614     1.34481062    -0.08364934
C       4.05397405     1.06449662     1.25633608
C       2.83737479     0.51734231     1.63842481
C       1.86655977     0.26860633     0.67133295
O       5.47009915     1.88851439    -0.42407231
C       5.57414322     2.18785790    -1.81837449
C       6.95116358     2.73954368    -2.10631427
C       7.11353563     3.75186195    -3.05599527
C       8.37039749     4.26220446    -3.37098600
C       9.50237261     3.74822710    -2.73638761
C       9.36372984     2.72211439    -1.79546767
C       8.09662251     2.21675561    -1.48733138
C      10.80104858     4.26519390    -3.05245475
N      11.85269296     4.68311748    -3.30950037
F       6.04419699     4.25160923    -3.69124880
H      -7.24599118    -0.38700305     1.96835954
H      -7.03948246    -2.08868393     1.45360547
H      -8.58755937     0.10492599    -0.05855533
H      -8.68151595    -1.66860079    -0.30662075
H      -5.70364270     0.44315171     0.25130621
H      -4.21493034    -1.25006965    -0.94428295
H      -5.06418023    -2.56431571    -0.15393128
H      -1.69954901    -2.02177790     4.81032729
H      -2.92932998    -4.08894524     5.45375934
H      -5.27466130    -3.85803696     1.82306945
H      -6.19091759    -6.54229540     3.66689802
H      -3.37414255     0.79282849    -0.43561812
H      -2.57092409     1.58012097     0.90916926
H      -1.64861473    -1.51129177    -0.91388317
H      -1.77836312    -0.34322010    -2.22016113
H       0.25150846    -1.42465633    -2.62641604
H       0.67063495    -1.61037544    -0.94022770
H       1.73985759     0.22323999    -2.69355891
H      -0.22448509     1.52151619    -2.97055723
H       0.88835557     2.51546554    -2.04325425
H      -1.63404564     2.34240917    -1.35832734
H      -0.40467478     2.38618722    -0.09802834
H       4.82895446     1.27189696     1.98425115
H       2.63755898     0.28871182     2.68136684
H       0.91097522    -0.14815229     0.97703613
H       4.81506342     2.93352928    -2.08623411
H       5.44339078     1.28150555    -2.42354601
H       8.44864693     5.05353292    -4.11162346
H      10.23835234     2.30682423    -1.29693867
H       8.00538420     1.41327642    -0.75778309
