71
danuglipron RDKit ETKDGv3+MMFF94 conformer 8 (cid=30, E_mmff=56.19 kcal/mol)
C      -4.94236097     0.94875767    -0.18475115
C      -5.75021497     0.09795328    -1.15971466
O      -5.39635454    -1.11215362    -0.44697543
C      -4.36025970    -0.39299104     0.28589053
C      -4.43479199    -0.65178934     1.78202926
N      -3.75276547    -1.87475594     2.18330837
C      -4.29297864    -3.14102635     2.15105796
C      -3.27398480    -3.95953784     2.62635078
C      -3.48379520    -5.34298817     2.72243966
C      -4.72394796    -5.86726780     2.33388160
C      -5.74130502    -5.02958395     1.85636596
C      -5.54180043    -3.64203117     1.75391112
C      -7.02758055    -5.65726009     1.46193912
O      -7.27013924    -6.85028605     1.46559917
O      -7.95860261    -4.76046266     1.09096651
N      -2.16104324    -3.22716424     2.94353222
C      -2.46710475    -1.97032554     2.67851879
C      -1.54629282    -0.80068290     2.88306886
N      -1.19373945    -0.11297670     1.62326252
C      -0.47928186     1.14649108     1.88956492
C       1.01795694     1.08841829     1.60079638
C       1.26388670     0.74611858     0.12410590
C       0.24197327    -0.27257195    -0.41018656
C      -0.45972821    -1.02317252     0.72145148
C       2.70680304     0.34273379    -0.10827062
N       3.47478323     1.24096895    -0.77343271
C       4.76862399     0.92184041    -0.99018807
C       5.34897523    -0.26271702    -0.57393759
C       4.55646155    -1.17488914     0.11003665
C       3.21897348    -0.87105711     0.34917035
O       5.58951489     1.80048054    -1.66727318
C       4.92590772     3.01484846    -2.02769891
C       5.88475802     3.89729255    -2.79249904
C       5.84792891     5.28350232    -2.61831809
C       6.69354038     6.13121617    -3.32936648
C       7.59501773     5.59325430    -4.24922988
C       7.63569498     4.20948238    -4.45192936
C       6.78136951     3.36758941    -3.73264986
C       8.47012969     6.45548114    -4.98712143
N       9.17784897     7.15392487    -5.58537045
F       4.98020074     5.82622304    -1.75268598
H      -5.54822032     1.48318371     0.55261434
H      -4.22560734     1.63330150    -0.64440479
H      -5.37796908     0.07476248    -2.18823564
H      -6.82861491     0.27559970    -1.15358263
H      -3.37800503    -0.60058602    -0.15497714
H      -5.47294699    -0.72324971     2.12796896
H      -3.98536244     0.17791386     2.33662588
H      -2.69383854    -5.98755314     3.09189706
H      -4.88918585    -6.94090673     2.40647069
H      -6.31534945    -2.98441394     1.37057509
H      -8.73369437    -5.31230082     0.85752245
H      -0.63987681    -1.13738578     3.40324173
H      -2.05244481    -0.10373950     3.56351906
H      -0.92830152     1.91696343     1.24942466
H      -0.63818096     1.49679449     2.91697659
H       1.48090103     2.05497667     1.83625857
H       1.48684244     0.35527741     2.26995210
H       1.10234069     1.66798325    -0.45421163
H       0.70165872    -0.98489453    -1.10571026
H      -0.52093728     0.26353488    -0.99180956
H      -1.16173964    -1.73551262     0.27262516
H       0.28208106    -1.61233067     1.27498305
H       6.39380440    -0.46763192    -0.77553633
H       4.97635728    -2.11498115     0.45647136
H       2.59787609    -1.57815510     0.88842055
H       4.59645079     3.53115372    -1.11729310
H       4.06581419     2.81133543    -2.67854252
H       6.63430662     7.20258206    -3.15731711
H       8.32933158     3.77613769    -5.17105563
H       6.82023390     2.29325524    -3.90682976
