71
danuglipron RDKit ETKDGv3+MMFF94 conformer 15 (cid=12, E_mmff=58.37 kcal/mol)
C      -5.97717470     0.48500137     0.71728491
C      -6.35409466     1.81735064     1.35951385
O      -5.36616318     1.62937390     2.40411029
C      -5.22750318     0.22540459     2.03401797
C      -3.76118692    -0.17368805     1.97842188
N      -3.57278866    -1.51645850     1.44779633
C      -3.81689087    -2.67544377     2.15605610
C      -3.54308352    -3.69402567     1.25144478
C      -3.70200861    -5.03153070     1.64145882
C      -4.13219842    -5.30876360     2.94588142
C      -4.40046442    -4.27188053     3.84940164
C      -4.24642988    -2.92695760     3.46826997
C      -4.85133838    -4.64063147     5.21520761
O      -5.00689140    -5.77188225     5.63557136
O      -5.08996404    -3.56943238     5.99299556
N      -3.13555868    -3.18336967     0.05082431
C      -3.12375478    -1.86867711     0.18989261
C      -2.70034300    -0.90368399    -0.88515379
N      -1.25109848    -0.81237244    -1.11884337
C      -0.50781301    -0.18689635    -0.02188936
C       0.98914120    -0.52525888    -0.02091562
C       1.55314511    -0.75116362    -1.42892313
C       0.71982329    -1.79697707    -2.19818856
C      -0.65283788    -2.06703589    -1.56681162
C       1.76724993     0.57399763    -2.14280468
N       2.97898778     1.15375029    -1.94072342
C       3.22046429     2.33875985    -2.54028673
C       2.30227160     3.00001093    -3.33478486
C       1.06189066     2.40848792    -3.52906597
C       0.78818697     1.18321121    -2.92601721
O       4.43847275     2.96305053    -2.36331466
C       5.35113003     2.18658142    -1.58256673
C       6.63993367     2.95725999    -1.41386977
C       7.86281969     2.28070230    -1.41035435
C       9.06834046     2.95286806    -1.22519782
C       9.06411581     4.33429757    -1.02586479
C       7.84939750     5.02837885    -1.00795379
C       6.64464598     4.34300036    -1.19437558
C      10.29808896     5.03730385    -0.83399539
N      11.29666251     5.60735622    -0.67735333
F       7.89300479     0.95195057    -1.58378772
H      -6.81246821    -0.18925667     0.51464029
H      -5.35412121     0.58439352    -0.17447194
H      -6.14607191     2.70384216     0.75501854
H      -7.36430037     1.87337674     1.77588176
H      -5.80237989    -0.39094025     2.73793019
H      -3.32170501    -0.16310304     2.98295352
H      -3.17775076     0.53074940     1.38000175
H      -3.49030107    -5.83077621     0.93927769
H      -4.25464357    -6.34665369     3.25179553
H      -4.44897213    -2.11777935     4.16218639
H      -5.37148491    -3.96088112     6.84687076
H      -3.09306378     0.10103365    -0.70250458
H      -3.18403724    -1.21630677    -1.82033385
H      -0.89958714    -0.47758189     0.95927099
H      -0.63365982     0.89967116    -0.09866511
H       1.54336874     0.25839305     0.51032919
H       1.13438749    -1.44872808     0.55664738
H       2.55761310    -1.18340540    -1.31092920
H       0.60291623    -1.52055706    -3.25287588
H       1.26882002    -2.74813433    -2.20530297
H      -0.54634815    -2.77689150    -0.73663371
H      -1.27839267    -2.55397044    -2.32514047
H       2.54828275     3.95165231    -3.79049389
H       0.31114774     2.89549630    -4.14441148
H      -0.18416441     0.72384645    -3.07095581
H       5.55264509     1.23883999    -2.09746040
H       4.94313419     1.99361217    -0.58201987
H       9.99578975     2.38659525    -1.23591759
H       7.83025973     6.10529045    -0.84713976
H       5.70690112     4.89620470    -1.17096482
