71
danuglipron RDKit ETKDGv3+MMFF94 conformer 0 (cid=2, E_mmff=49.13 kcal/mol)
C      -2.99994583    -1.27142559     4.54390072
C      -4.19994416    -0.39916068     4.19258669
O      -3.38029299     0.49665752     3.40622301
C      -2.21924000    -0.35762736     3.58734043
C      -1.65625761    -0.88013672     2.26764681
N      -2.60187884    -1.60046516     1.42441380
C      -2.78536510    -2.96801077     1.41938972
C      -3.77042313    -3.17811311     0.46061286
C      -4.22337743    -4.48093069     0.20396816
C      -3.66380052    -5.54865230     0.91918809
C      -2.66540282    -5.32286184     1.87525453
C      -2.20473002    -4.02128242     2.14149475
C      -2.05797592    -6.43539309     2.64765917
O      -1.21337299    -6.31827715     3.51670116
O      -2.53686496    -7.64170815     2.29723882
N      -4.15241879    -1.99985680    -0.11827090
C      -3.41347155    -1.06023362     0.44597369
C      -3.43337054     0.39220713     0.05990585
N      -2.19091655     0.82151523    -0.61861429
C      -2.18385563     2.28507345    -0.75754742
C      -0.88646275     2.77456819    -1.39970386
C      -0.66898449     2.10820096    -2.76349429
C      -0.74662132     0.58525800    -2.61664881
C      -2.04791531     0.16680052    -1.93026587
C       0.64494653     2.52733869    -3.39087053
N       1.77119304     2.36610154    -2.65426910
C       2.94463102     2.72013960    -3.21795211
C       3.05831382     3.23627449    -4.49648772
C       1.89864212     3.39511393    -5.24475972
C       0.67421588     3.03494707    -4.68860339
O       4.11794328     2.57853397    -2.50561725
C       3.91291979     2.00259823    -1.21209005
C       5.23502137     1.91316633    -0.48496470
C       5.46496347     0.86393298     0.40954694
C       6.65530512     0.76167474     1.12500335
C       7.64388076     1.73311056     0.96084604
C       7.42640790     2.80214366     0.08484789
C       6.22678323     2.89495907    -0.62828662
C       8.87283178     1.63952866     1.69202106
N       9.86738732     1.56488130     2.28524477
F       4.52408162    -0.07195294     0.59847709
H      -2.68371057    -1.20219125     5.58888100
H      -3.09865522    -2.32081688     4.26638585
H      -4.96600691    -0.88003300     3.57745141
H      -4.66714288     0.11554611     5.03640370
H      -1.43451860     0.20177292     4.11491541
H      -1.24125265    -0.05385484     1.68365669
H      -0.81637693    -1.55588965     2.46557673
H      -4.99177767    -4.64828204    -0.54307534
H      -4.01831935    -6.55633499     0.71473484
H      -1.43019430    -3.84584884     2.88185357
H      -2.05057898    -8.26663282     2.87475883
H      -3.58589587     0.98602336     0.96688809
H      -4.30532730     0.58195544    -0.58015127
H      -2.26645647     2.75203436     0.23162288
H      -3.04245099     2.62624548    -1.35095171
H      -0.04847312     2.55941692    -0.72309350
H      -0.92253881     3.86502854    -1.51453649
H      -1.48853343     2.42884677    -3.42197625
H      -0.68473564     0.10733898    -3.60235143
H       0.10627715     0.21026497    -2.03464281
H      -2.90031523     0.40469130    -2.58021555
H      -2.01953786    -0.92287152    -1.81711288
H       4.02754326     3.50445028    -4.90002509
H       1.94771228     3.79321332    -6.25413796
H      -0.23787968     3.14881097    -5.26587784
H       3.24190773     2.62837202    -0.60958671
H       3.49151209     0.99591994    -1.32752328
H       6.79297514    -0.07496408     1.80468827
H       8.18578981     3.57137197    -0.04800546
H       6.07038221     3.73777885    -1.29990264
