71
danuglipron RDKit ETKDGv3+MMFF94 conformer 10 (cid=1, E_mmff=56.44 kcal/mol)
C      -4.24111291     0.26422248     0.83328584
C      -5.25093982     1.26198082     1.39282776
O      -5.56602647     0.36884411     2.49218675
C      -4.92204085    -0.73531757     1.78160870
C      -4.07122275    -1.56400343     2.73311841
N      -3.40034639    -2.68133261     2.07968861
C      -4.03654968    -3.79437464     1.56689972
C      -3.00818404    -4.55794995     1.02556069
C      -3.30452807    -5.77039076     0.38589673
C      -4.63920645    -6.19096713     0.31775997
C      -5.66444906    -5.41960187     0.88052547
C      -5.37942922    -4.20067089     1.52145486
C      -7.05447805    -5.93129354     0.77705196
O      -7.39496318    -6.97449715     0.25105638
O      -7.95762433    -5.10690146     1.33739732
N      -1.79480044    -3.96359587     1.23434964
C      -2.04143572    -2.85457675     1.90824306
C      -0.98245806    -1.92287539     2.42651360
N      -0.90215733    -0.66256751     1.66586542
C      -0.54827980    -0.91871613     0.25587578
C       0.00708184     0.32758090    -0.42804451
C       1.34033383     0.73282805     0.21846181
C       1.37870564     0.40961706     1.72304603
C      -0.02060829     0.31028383     2.32764940
C       1.71338938     2.17030417    -0.08783336
N       2.86573802     2.35033370    -0.77955680
C       3.23506665     3.61621929    -1.06833093
C       2.51103937     4.73300812    -0.69226220
C       1.33382432     4.54078706     0.01838721
C       0.92727319     3.24510918     0.32618017
O       4.40075682     3.84986860    -1.76866206
C       5.05571374     2.64499778    -2.17467549
C       6.33089702     2.99840263    -2.90371195
C       6.73017360     2.25422027    -4.01715896
C       7.91510808     2.53222959    -4.69391546
C       8.73579982     3.57021067    -4.24977643
C       8.36307891     4.31648022    -3.12645433
C       7.17115418     4.02815732    -2.45414090
C       9.95750872     3.86617492    -4.93794912
N      10.94733344     4.10628635    -5.49401167
F       5.96737758     1.24269743    -4.45477484
H      -3.20857853     0.52156516     1.07094591
H      -4.33781746     0.04301780    -0.23178718
H      -4.83029234     2.20845787     1.74176080
H      -6.13072574     1.44732004     0.76925005
H      -5.69874815    -1.32856733     1.28235750
H      -4.69707633    -2.00231389     3.52003469
H      -3.32528740    -0.94103398     3.23397828
H      -2.50587466    -6.36897050    -0.03891008
H      -4.87106396    -7.13347126    -0.17573575
H      -6.16696488    -3.60116204     1.96586041
H      -8.81155419    -5.56758533     1.19651671
H      -1.20872917    -1.71714287     3.48052437
H      -0.01287064    -2.43824244     2.41812636
H       0.19563589    -1.72242874     0.17079928
H      -1.44345105    -1.24437489    -0.28663236
H      -0.73893367     1.13044214    -0.37241052
H       0.16172090     0.13207557    -1.49652793
H       2.11990926     0.10771446    -0.24221924
H       1.88209036    -0.55665603     1.86420603
H       1.97539676     1.14418693     2.27732938
H      -0.50833170     1.28970660     2.25950057
H       0.06159154     0.11297406     3.40385202
H       2.85557507     5.72765806    -0.94971758
H       0.73602140     5.39282179     0.32905906
H       0.00628256     3.09026847     0.87734793
H       5.32560172     2.03408218    -1.30362877
H       4.39274786     2.07878353    -2.84079202
H       8.18304294     1.93097700    -5.55860765
H       8.99657650     5.12515706    -2.76490286
H       6.89759389     4.61352866    -1.57751983
