71
danuglipron RDKit ETKDGv3+MMFF94 conformer 14 (cid=33, E_mmff=58.01 kcal/mol)
C      -3.11306050    -4.79708884     0.46114432
C      -3.53509300    -5.26655849     1.84947377
O      -2.41309682    -4.60192950     2.47261903
C      -1.94300591    -4.11685599     1.18805246
C      -1.76252187    -2.60169402     1.16251978
N      -2.98700004    -1.82306848     1.29884567
C      -3.60773941    -1.51256166     2.49016444
C      -4.70978189    -0.75217037     2.11542799
C      -5.58815544    -0.27113024     3.09732964
C      -5.32699298    -0.56707489     4.44175127
C      -4.20850250    -1.32891826     4.80591572
C      -3.32370321    -1.81891115     3.82990700
C      -3.99579557    -1.60100263     6.24984301
O      -4.73515825    -1.26240291     7.15583702
O      -2.86047106    -2.27837262     6.49509423
N      -4.75319521    -0.58511378     0.75805216
C      -3.69353452    -1.21199303     0.28029063
C      -3.30688668    -1.24672680    -1.17187413
N      -2.08125600    -0.47928729    -1.45943697
C      -1.65968851    -0.65696955    -2.84830671
C      -0.24539394    -0.10019382    -3.04853521
C       0.01521420     1.17112934    -2.21945645
C      -1.30133487     1.88164854    -1.89313610
C      -2.24890116     0.94961736    -1.12375041
C       1.04024825     2.07201441    -2.87598086
N       2.26079281     2.11666836    -2.28725132
C       3.20161297     2.90318941    -2.85133922
C       2.98971940     3.66041290    -3.98944461
C       1.73857492     3.60491967    -4.58938800
C       0.74981011     2.80039770    -4.02953383
O       4.45734413     2.98683271    -2.28535921
C       4.60746177     2.14161831    -1.14145347
C       5.99370092     2.32794552    -0.57071523
C       6.70634367     1.22800275    -0.08587247
C       7.97341730     1.36920876     0.47444134
C       8.54877193     2.63748656     0.56830585
C       7.84489428     3.75415846     0.10441360
C       6.57282813     3.60077043    -0.45599144
C       9.85238839     2.79514017     1.14230482
N      10.90790290     2.92293244     1.60724981
F       6.17034675     0.00112941    -0.15090093
H      -2.81843365    -5.59934193    -0.22102279
H      -3.83786301    -4.14819948    -0.03300273
H      -4.48720591    -4.86646103     2.20921713
H      -3.50008334    -6.34782950     2.00858404
H      -0.98218500    -4.59708197     0.95651515
H      -1.08523253    -2.28345076     1.96408454
H      -1.27714818    -2.31257966     0.22710922
H      -6.44998821     0.32174185     2.81124455
H      -6.00662067    -0.19406475     5.20611929
H      -2.46119103    -2.42086026     4.09807647
H      -2.85574783    -2.38528345     7.46887996
H      -3.15980045    -2.29605162    -1.45559788
H      -4.14465222    -0.87610238    -1.77715354
H      -1.64094869    -1.72009066    -3.11855132
H      -2.36295385    -0.16875909    -3.53588794
H      -0.09716876     0.07553916    -4.12123318
H       0.49553312    -0.85873627    -2.76242340
H       0.44523083     0.84970925    -1.25863942
H      -1.79673916     2.20629774    -2.81738951
H      -1.11919883     2.78770768    -1.30217109
H      -3.27463286     1.29191224    -1.31381998
H      -2.06143314     1.07375564    -0.05024181
H       3.78205749     4.27560604    -4.39936518
H       1.53493284     4.18192791    -5.48681174
H      -0.22780296     2.74587140    -4.49710242
H       4.46758654     1.09579409    -1.44225184
H       3.88410876     2.40823176    -0.36008801
H       8.49367470     0.48529712     0.83356484
H       8.27859049     4.75048486     0.17683421
H       6.03421205     4.47981717    -0.80704278
