71
danuglipron RDKit ETKDGv3+MMFF94 conformer 4 (cid=14, E_mmff=52.65 kcal/mol)
C      -2.43090619    -3.63312080     2.18437999
C      -1.56686047    -3.79144581     3.43223753
O      -1.80359781    -2.40956373     3.80496235
C      -2.28527171    -2.12534853     2.45291104
C      -3.53036438    -1.25324824     2.49472134
N      -4.07687790    -0.98100124     1.17128468
C      -5.03054570    -1.74027039     0.52617678
C      -5.18409005    -1.11819585    -0.70866674
C      -6.07767502    -1.65039103    -1.64981475
C      -6.80701808    -2.79917113    -1.31701162
C      -6.65400284    -3.40777242    -0.06473138
C      -5.76011579    -2.88375043     0.88608429
C      -7.46446798    -4.61814598     0.22268276
O      -8.27270750    -5.13248748    -0.52764687
O      -7.22056359    -5.13388187     1.44113968
N      -4.39231225    -0.00715298    -0.80090064
C      -3.75558479     0.08467276     0.35239540
C      -2.82713033     1.20460160     0.73002756
N      -1.43190023     0.76222525     0.88419164
C      -0.64394611     1.79563987     1.57964039
C       0.86913286     1.67164821     1.35881577
C       1.26382247     0.21900171     1.07603534
C       0.51729523    -0.30394934    -0.16499287
C      -0.81718924     0.41453235    -0.40186501
C       2.76090816     0.05521738     0.92099940
N       3.39481958     0.88757997     0.05847289
C       4.72746359     0.73495809    -0.09012650
C       5.47138723    -0.22247589     0.57669818
C       4.81017785    -1.07485409     1.45203134
C       3.43616668    -0.93825986     1.62766770
O       5.42053503     1.55740188    -0.95460666
C       4.58769070     2.54721751    -1.56477661
C       5.41890584     3.37852598    -2.51372265
C       5.17836455     4.74983011    -2.63557049
C       5.90268924     5.54180607    -3.52292507
C       6.88689136     4.95842701    -4.32244495
C       7.13131320     3.58395595    -4.22891713
C       6.39740567     2.79807704    -3.33466823
C       7.63934737     5.76302090    -5.23906638
N       8.24864950     6.41400551    -5.98175086
F       4.22812990     5.33132788    -1.89013057
H      -1.98288275    -3.98952596     1.25420387
H      -3.43546303    -4.04527718     2.29868475
H      -1.94913707    -4.48923677     4.18148325
H      -0.50329640    -3.97581522     3.25285167
H      -1.46999140    -1.67690857     1.87534415
H      -3.31149212    -0.29133527     2.96960272
H      -4.32245341    -1.71829498     3.09263805
H      -6.19940587    -1.16879072    -2.61412739
H      -7.50285903    -3.21216776    -2.04554362
H      -5.64576103    -3.34353470     1.86143291
H      -7.81985645    -5.90866099     1.48694702
H      -2.89909736     2.00560334    -0.01753753
H      -3.19384486     1.63031520     1.67328961
H      -0.85392792     1.71279279     2.65303307
H      -0.94624530     2.80576204     1.27303793
H       1.40155691     2.05665986     2.23727107
H       1.16012001     2.31026907     0.51363287
H       0.94135728    -0.37624812     1.94262824
H       1.12406934    -0.20399085    -1.07398001
H       0.34173814    -1.38031219    -0.03590020
H      -1.45257693    -0.25994220    -0.98745288
H      -0.66293165     1.31245969    -1.01490889
H       6.54044545    -0.30101065     0.41768484
H       5.35994892    -1.83944138     1.99320298
H       2.90668328    -1.59906408     2.30697599
H       3.78432628     2.07694968    -2.14645110
H       4.16125599     3.19194570    -0.78599171
H       5.68572051     6.60510583    -3.58012194
H       7.89156634     3.11400212    -4.85115723
H       6.59446607     1.72850634    -3.27830271
