71
danuglipron RDKit ETKDGv3+MMFF94 conformer 13 (cid=26, E_mmff=57.93 kcal/mol)
C      -5.32219038    -2.18967086     4.39438722
C      -5.49982960    -0.68371493     4.23568667
O      -4.06958903    -0.46709737     4.22504160
C      -3.82119924    -1.89799016     4.24714511
C      -3.02977425    -2.37912606     3.03305892
N      -3.61554184    -2.05887879     1.73775371
C      -4.45023621    -2.88336553     1.01157809
C      -4.73359849    -2.15498983    -0.13902902
C      -5.58837091    -2.69564440    -1.11090782
C      -6.13315883    -3.96922122    -0.90090640
C      -5.83110421    -4.69661525     0.25757519
C      -4.97687835    -4.16445999     1.23954206
C      -6.44203010    -6.04085076     0.41258353
O      -7.17954579    -6.58772778    -0.38598430
O      -6.10276119    -6.63950203     1.56881681
N      -4.07742875    -0.95529622    -0.13585118
C      -3.37936614    -0.92509155     0.98594895
C      -2.42901734     0.17303425     1.37490145
N      -1.00941344    -0.21756778     1.22724192
C      -0.70147295    -0.57820950    -0.16916769
C       0.79825679    -0.55463740    -0.46519475
C       1.41389073     0.83261327    -0.21108146
C       0.54087841     1.69067666     0.71652137
C      -0.11949183     0.81628670     1.77834372
C       1.76989631     1.58068474    -1.48116850
N       3.06803205     1.95246341    -1.60855503
C       3.42309766     2.62032284    -2.72675119
C       2.53991159     2.95109772    -3.73857616
C       1.21179460     2.57156160    -3.59781897
C       0.81837251     1.87830674    -2.45628992
O       4.73199415     3.02100221    -2.90197355
C       5.58978065     2.59454648    -1.84010335
C       6.98864709     3.10499854    -2.09679251
C       8.09252365     2.31779215    -1.75777879
C       9.39639222     2.76777082    -1.94958564
C       9.61587105     4.03923399    -2.48190500
C       8.52468377     4.85056784    -2.81147165
C       7.21947512     4.38860057    -2.61405904
C      10.95304190     4.51357381    -2.68365818
N      12.03567202     4.89853535    -2.84602405
F       7.90887937     1.09940781    -1.23009092
H      -5.61025408    -2.57596905     5.37650166
H      -5.79471339    -2.79138632     3.61807449
H      -5.97936158    -0.17785844     5.07793674
H      -5.95768697    -0.36142302     3.29603400
H      -3.26851342    -2.15734199     5.16055671
H      -2.90977131    -3.46761764     3.07644386
H      -2.01682411    -1.96572099     3.05641549
H      -5.81271077    -2.13119743    -2.00956404
H      -6.79510574    -4.39108857    -1.65549586
H      -4.73736546    -4.72154635     2.13872117
H      -6.56900295    -7.50119583     1.52609375
H      -2.62927756     0.45290753     2.41378311
H      -2.64404261     1.06320287     0.76897088
H      -1.07182705    -1.59071257    -0.36880701
H      -1.21120005     0.09385815    -0.87041972
H       1.28936969    -1.28496166     0.19284754
H       0.98516382    -0.90087934    -1.48882586
H       2.36204539     0.64920801     0.31603477
H      -0.23539119     2.23088239     0.15940648
H       1.16036531     2.45835811     1.19693730
H      -0.63613811     1.45221373     2.50787184
H       0.66631054     0.30431481     2.34884985
H       2.87950249     3.49043901    -4.61490104
H       0.48712653     2.81299382    -4.37016846
H      -0.21899327     1.58341925    -2.34053097
H       5.25480522     3.00473469    -0.87869233
H       5.59870480     1.49807405    -1.80017597
H      10.22448415     2.11904066    -1.67693651
H       8.68063217     5.84728482    -3.22163101
H       6.38057676     5.03454721    -2.86904229
