71
danuglipron RDKit ETKDGv3+MMFF94 conformer 5 (cid=15, E_mmff=53.02 kcal/mol)
C      -6.64145347    -0.05649118     1.36655772
C      -6.99135119     1.29577365     0.75153488
O      -5.62158093     1.48812508     0.31575431
C      -5.18436072     0.39343991     1.17409287
C      -4.22955181    -0.52591800     0.42979978
N      -3.79289186    -1.64429090     1.25243392
C      -4.34722764    -2.90640404     1.23952886
C      -3.64206755    -3.59752660     2.21865865
C      -3.95832695    -4.93683828     2.48922051
C      -4.98259389    -5.55174324     1.75754460
C      -5.68235713    -4.84554545     0.77063417
C      -5.37449658    -3.50191650     0.49132352
C      -6.75479825    -5.56071888     0.03379428
O      -7.08168234    -6.72174409     0.19449976
O      -7.37482581    -4.78289359    -0.87221709
N      -2.69349688    -2.79935619     2.79418269
C      -2.76716346    -1.63233643     2.17897486
C      -1.88356632    -0.44675756     2.46913302
N      -0.50427824    -0.61697430     1.97213346
C       0.37358341     0.40423048     2.56057517
C       1.83039544     0.17973757     2.15702458
C       1.97419153     0.14943267     0.63167834
C       0.99711686    -0.86243609     0.02365089
C      -0.43016543    -0.60082271     0.50609834
C       3.40261435    -0.09637017     0.19385715
N       3.98772536     0.89785619    -0.51942457
C       5.26311282     0.71192267    -0.92155866
C       5.99716897    -0.42955748    -0.65222221
C       5.38895831    -1.44255957     0.07726618
C       4.07558699    -1.27702860     0.50751566
O       5.90341286     1.69216319    -1.65232662
C       5.09473412     2.85501192    -1.84908298
C       5.85737430     3.85767373    -2.68371823
C       5.70644814     5.22559638    -2.43996402
C       6.36643589     6.18126128    -3.20833670
C       7.19159171     5.77276861    -4.25732457
C       7.34226946     4.40875109    -4.52992101
C       6.67410982     3.45769158    -3.75202184
C       7.87572003     6.74674812    -5.05548588
N       8.42860842     7.53541039    -5.70274512
F       4.90679970     5.64418748    -1.44894016
H      -6.95530479    -0.19455083     2.40369834
H      -6.96012415    -0.90968960     0.76298483
H      -7.29418310     2.07348725     1.45897124
H      -7.68700987     1.26119532    -0.09074808
H      -4.73996750     0.81024779     2.08772287
H      -4.68769052    -0.92751072    -0.48059517
H      -3.33526230     0.01814041     0.10984662
H      -3.41003744    -5.47878722     3.25236347
H      -5.22799187    -6.59203844     1.96512264
H      -5.90871497    -2.95152291    -0.27543705
H      -8.03977778    -5.38238277    -1.27239198
H      -2.31673363     0.48794254     2.09696049
H      -1.86182976    -0.35509909     3.56367784
H       0.31949967     0.35917155     3.65526954
H       0.05511724     1.41142421     2.26104541
H       2.18360888    -0.76011547     2.60096677
H       2.45409354     0.97757330     2.57912873
H       1.68702346     1.14351819     0.25812479
H       1.28173942    -1.88855736     0.29068938
H       1.02867580    -0.80549132    -1.07159821
H      -1.06601640    -1.38411912     0.07856238
H      -0.78459801     0.35923439     0.10885669
H       7.01854905    -0.52546641    -1.00116114
H       5.93203250    -2.35381130     0.31059248
H       3.59132662    -2.06282844     1.07942583
H       4.17296879     2.60231758    -2.38876151
H       4.85302162     3.29665782    -0.87412652
H       6.22413784     7.23388251    -2.97885335
H       7.97758607     4.07550003    -5.34928211
H       6.79613956     2.40012598    -3.98154389
