71
danuglipron RDKit ETKDGv3+MMFF94 conformer 12 (cid=17, E_mmff=57.20 kcal/mol)
C      -3.44425422    -2.46419670     4.48555788
C      -4.52828374    -1.39212517     4.46991035
O      -3.59108812    -0.38234072     4.02841811
C      -2.53962507    -1.37494310     3.88975366
C      -2.00432068    -1.47408145     2.46309765
N      -3.00116874    -1.75910946     1.43908098
C      -3.32800854    -3.01506659     0.97005154
C      -4.30721881    -2.77763705     0.01127878
C      -4.89063464    -3.85705773    -0.66841400
C      -4.46350913    -5.15718823    -0.36827681
C      -3.46888461    -5.38167352     0.59231197
C      -2.87784180    -4.30778761     1.28123329
C      -3.06369480    -6.78513718     0.85752864
O      -3.50761516    -7.77445937     0.30529100
O      -2.11942341    -6.88585680     1.81074534
N      -4.54688149    -1.43853805    -0.12578178
C      -3.72682835    -0.83341800     0.71545107
C      -3.57741563     0.65673369     0.84457076
N      -2.30561591     1.14868172     0.27765115
C      -2.22324844     0.88234292    -1.17192442
C      -1.27837244     1.83181688    -1.92256502
C      -0.13020609     2.28705586    -1.01739834
C      -0.67460487     2.98551232     0.24263206
C      -2.11053008     2.56589640     0.57799133
C       0.89734446     3.13573189    -1.73715132
N       2.18183274     2.70640367    -1.67065114
C       3.12224993     3.44031277    -2.30217201
C       2.85013442     4.60266964    -3.00123706
C       1.53307360     5.03886834    -3.05929659
C       0.54205512     4.29916568    -2.41987812
O       4.44388733     3.04505043    -2.26271495
C       4.63281480     1.81091478    -1.56494236
C       6.10577610     1.47400688    -1.53856161
C       6.51765941     0.14117574    -1.62378971
C       7.86369218    -0.21184893    -1.56996601
C       8.83153032     0.78181702    -1.41511434
C       8.43956445     2.12075437    -1.30950851
C       7.08479627     2.46374109    -1.36435605
C      10.21980729     0.43101708    -1.35740555
N      11.34396846     0.14723776    -1.30880357
F       5.60696054    -0.83340657    -1.75588118
H      -3.65303881    -3.33686308     3.86678235
H      -3.15091218    -2.79302746     5.48686102
H      -4.95785229    -1.14696399     5.44488733
H      -5.32613922    -1.54162416     3.73673206
H      -1.71111499    -1.12419655     4.56631314
H      -1.24492815    -2.26228937     2.40666462
H      -1.49231036    -0.54703686     2.18862991
H      -5.65468086    -3.67651100    -1.41684947
H      -4.91375322    -5.99581735    -0.89691777
H      -2.10635267    -4.47303060     2.02533981
H      -1.95444683    -7.85076285     1.86872452
H      -3.63778579     0.92252674     1.90452370
H      -4.43026326     1.14772857     0.35738876
H      -1.86616198    -0.14523271    -1.31174036
H      -3.20786267     0.94942145    -1.65294233
H      -1.85221503     2.69965330    -2.27292432
H      -0.89262423     1.33100203    -2.81911727
H       0.38840752     1.37529211    -0.68418254
H      -0.65291956     4.07797696     0.14558479
H      -0.01227524     2.74544690     1.08522010
H      -2.82834071     3.18542688     0.02428735
H      -2.27581363     2.76719504     1.64372327
H       3.64577134     5.15354913    -3.48877483
H       1.27945813     5.94738292    -3.59779474
H      -0.48895242     4.63571174    -2.45602136
H       4.08259970     1.01499289    -2.08240440
H       4.28998412     1.89376771    -0.52553255
H       8.13815024    -1.26053742    -1.64643061
H       9.18310532     2.90613402    -1.18174315
H       6.79539504     3.50965029    -1.27336231
