71
danuglipron RDKit ETKDGv3+MMFF94 conformer 7 (cid=20, E_mmff=56.06 kcal/mol)
C      -2.50073703    -2.89963281     2.03292415
C      -3.62779153    -3.88047432     1.72529195
O      -4.62884525    -2.84959457     1.90887406
C      -3.63095792    -1.96546204     2.49874799
C      -3.77416117    -0.52904731     2.00771274
N      -3.18556671    -0.24173015     0.70636052
C      -3.73817171    -0.56235593    -0.51446942
C      -2.81013249    -0.10024993    -1.44179434
C      -3.04819293    -0.28202424    -2.81196452
C      -4.22662178    -0.92438052    -3.21417215
C      -5.15691885    -1.37747492    -2.26896369
C      -4.92746983    -1.20335797    -0.89303720
C      -6.38370661    -2.04665461    -2.77055757
O      -6.64114171    -2.28338345    -3.93663095
O      -7.23734661    -2.38347478    -1.78795032
N      -1.75022007     0.50260566    -0.82023575
C      -2.00225715     0.43460111     0.47437357
C      -1.13082432     1.01772776     1.55254194
N      -0.44534873    -0.02137009     2.35069817
C       0.14339379     0.55000428     3.57316523
C       1.61929855     0.91496254     3.44330031
C       2.46740492    -0.32644899     3.11471916
C       1.65785800    -1.37635244     2.33245126
C       0.55241161    -0.71941407     1.50678610
C       3.72319841     0.08170501     2.36767171
N       3.56482382     0.55570328     1.10840530
C       4.66937405     0.93682599     0.43507495
C       5.94776203     0.86104105     0.95699030
C       6.10046334     0.37450412     2.25014525
C       4.97489304    -0.01912095     2.96968873
O       4.55212756     1.42445152    -0.84959433
C       3.19140473     1.56008292    -1.26607465
C       3.19240603     2.09690980    -2.67434243
C       2.74667607     3.39196429    -2.94702343
C       2.74496842     3.90150440    -4.24287338
C       3.19998510     3.10767835    -5.29744518
C       3.65392013     1.80849012    -5.04305972
C       3.65113388     1.30627444    -3.73840521
C       3.20514618     3.62288861    -6.63471964
N       3.21183993     4.03955255    -7.71783394
F       2.30855023     4.17573848    -1.95187051
H      -1.94569648    -2.59641654     1.14423840
H      -1.80575136    -3.21570460     2.81441178
H      -3.75783320    -4.69172318     2.44763909
H      -3.63634483    -4.27904071     0.70743997
H      -3.75911681    -1.98237853     3.59086792
H      -3.32050003     0.14789924     2.73728971
H      -4.83121458    -0.24090890     1.95546963
H      -2.32836107     0.07591967    -3.53982146
H      -4.41438660    -1.06552334    -4.27725833
H      -5.63684260    -1.55708747    -0.15157480
H      -7.98406404    -2.80754523    -2.25937964
H      -1.77282077     1.63318435     2.19550906
H      -0.40588995     1.71045589     1.10483522
H      -0.42454255     1.41985183     3.92540798
H       0.03824838    -0.19775807     4.37026309
H       1.97744432     1.36107372     4.37955658
H       1.72602676     1.69548403     2.67845781
H       2.76794328    -0.79972351     4.05944762
H       1.19582626    -2.07714505     3.04121565
H       2.30442998    -1.98147877     1.68522044
H       0.04740785    -1.49495558     0.92178566
H       1.01183685    -0.03376808     0.78423130
H       6.80277163     1.17772456     0.37120927
H       7.08902606     0.30432137     2.69489949
H       5.08218367    -0.39724053     3.98126500
H       2.65156674     2.24296810    -0.59787876
H       2.68280651     0.58674694    -1.26893895
H       2.38818866     4.91399560    -4.41122055
H       4.01380618     1.17948037    -5.85582550
H       4.01122429     0.29608025    -3.54997789
