71
danuglipron RDKit ETKDGv3+MMFF94 conformer 9 (cid=3, E_mmff=56.31 kcal/mol)
C      -6.66583324     0.77193908     1.18499517
C      -6.24566765     1.51842578     2.44731401
O      -5.23857777     0.52168843     2.74539751
C      -5.79320814    -0.36628347     1.73326790
C      -4.72731740    -0.89604634     0.78769612
N      -3.89779790    -1.92404902     1.39932120
C      -4.22473794    -3.26068319     1.47867952
C      -3.12762551    -3.84422169     2.10260197
C      -3.12432233    -5.22542707     2.34834345
C      -4.23409127    -5.98776331     1.95704057
C      -5.33153016    -5.38393242     1.32913717
C      -5.34566437    -4.00073871     1.07669485
C      -6.51888207    -6.16839810     0.90696016
O      -7.51238442    -5.71722759     0.36666894
O      -6.40702798    -7.47989934     1.18034323
N      -2.17009620    -2.90943522     2.38928269
C      -2.65103738    -1.75415020     1.96313915
C      -1.93716703    -0.43556962     2.05880531
N      -1.39997757     0.02530023     0.75941188
C      -0.43468824    -0.94641871     0.21257583
C       0.46354847    -0.33920923    -0.86525132
C       1.27665326     0.85369713    -0.33251675
C       0.65929946     1.45108223     0.94065814
C      -0.86352263     1.39091679     0.86761572
C       2.74911284     0.54694049    -0.13985970
N       3.61532219     1.33482599    -0.82433450
C       4.93538570     1.09631029    -0.67249355
C       5.44899795     0.09837231     0.13592820
C       4.55549308    -0.70181466     0.83530533
C       3.18827268    -0.47682614     0.69910453
O       5.85609795     1.86760699    -1.35209725
C       5.24742140     2.90301961    -2.12833738
C       6.32315682     3.66797776    -2.86356617
C       6.20989224     5.05125162    -3.02717466
C       7.16559511     5.78404568    -3.72645464
C       8.26061114     5.12794858    -4.29100396
C       8.38387557     3.74101222    -4.15399185
C       7.41777952     3.01503363    -3.45007420
C       9.25052303     5.87125286    -5.01301899
N      10.05163578     6.47285604    -5.59862432
F       5.15982433     5.70294827    -2.50818444
H      -6.31504749     1.22898819     0.25532454
H      -7.73243534     0.54741236     1.10972385
H      -6.99914065     1.56910674     3.23882782
H      -5.80602294     2.50551141     2.28269956
H      -6.38484777    -1.15923395     2.20925161
H      -5.19244212    -1.34643539    -0.09705800
H      -4.08142331    -0.09281004     0.42190806
H      -2.27152609    -5.68597067     2.83518635
H      -4.22630578    -7.05788654     2.15133053
H      -6.19468046    -3.53078400     0.59015885
H      -7.24723410    -7.86331005     0.85247508
H      -2.64242458     0.30440542     2.45392750
H      -1.12928556    -0.51821657     2.79787289
H      -0.98266494    -1.78487109    -0.23344238
H       0.19739655    -1.36254550     1.00668669
H      -0.17561862     0.00850004    -1.68874596
H       1.11110957    -1.11288615    -1.29505117
H       1.22133574     1.62795338    -1.11223258
H       0.98718276     2.49203429     1.05385579
H       0.99875705     0.92542275     1.84244769
H      -1.29357151     1.93118138     1.72011500
H      -1.19375744     1.94555136    -0.02030930
H       6.51915991    -0.04923322     0.22034156
H       4.91927511    -1.49393970     1.48351348
H       2.48698731    -1.09576013     1.24835803
H       4.70136690     3.58205952    -1.46154361
H       4.56530731     2.48046900    -2.87731735
H       7.03981243     6.85905343    -3.82370832
H       9.22947017     3.21477723    -4.59449568
H       7.52392659     1.93509855    -3.35771557
