71
danuglipron RDKit ETKDGv3+MMFF94 conformer 11 (cid=16, E_mmff=56.49 kcal/mol)
C      -4.85893903    -1.65801926     4.08698809
C      -5.86041105    -0.67813412     3.48561754
O      -4.83266375     0.31781513     3.27357145
C      -3.80326261    -0.60445136     3.71955475
C      -2.74686288    -0.86910903     2.64932644
N      -3.25350052    -1.38543751     1.38451575
C      -3.34546913    -2.71964342     1.04674167
C      -3.87234617    -2.71142942    -0.24019896
C      -4.11949041    -3.92605371    -0.89727575
C      -3.82047396    -5.12766125    -0.24030692
C      -3.28120575    -5.12014177     1.05231632
C      -3.03133183    -3.90870649     1.72123273
C      -2.95535230    -6.37763437     1.77049149
O      -2.50320970    -6.45288111     2.89851170
O      -3.21163703    -7.47941389     1.04449952
N      -4.06470245    -1.43261893    -0.68391495
C      -3.65131585    -0.64204464     0.29100701
C      -3.58408442     0.85762047     0.21108954
N      -2.20286794     1.34125364     0.01006596
C      -2.12471732     2.79203919     0.16144608
C      -0.65772843     3.22957941     0.23269238
C       0.22840293     2.56480063    -0.83885517
C      -0.61353222     1.83731187    -1.89291088
C      -1.66323846     0.89449027    -1.28973081
C       1.32647313     1.66979818    -0.28889017
N       2.55388272     1.83920267    -0.84390722
C       3.55815469     1.05043926    -0.40644273
C       3.40798490     0.08552639     0.57268134
C       2.15005665    -0.08532138     1.13391775
C       1.09577013     0.71353911     0.69893549
O       4.82397741     1.19074314    -0.93809611
C       4.88060619     2.16273332    -1.98565060
C       6.30302341     2.27212541    -2.48367409
C       6.55367380     2.47570792    -3.84339165
C       7.84972781     2.61326631    -4.33400514
C       8.93029145     2.55952878    -3.45216637
C       8.70038551     2.37430044    -2.08453046
C       7.39454460     2.23789140    -1.60281289
C      10.26865825     2.69990689    -3.94490536
N      11.35268798     2.81459829    -4.34288309
F       5.53268282     2.54701203    -4.70889024
H      -4.97700462    -1.81933009     5.16252071
H      -4.80200006    -2.62247484     3.58234239
H      -6.63446454    -0.32108503     4.17015495
H      -6.31256024    -0.99029530     2.53980991
H      -3.31228298    -0.19621600     4.61362152
H      -2.01132364    -1.58980697     3.02440743
H      -2.18679027     0.04732157     2.43878970
H      -4.53025488    -3.92339186    -1.90127263
H      -4.01248547    -6.06588491    -0.75599396
H      -2.61419969    -3.90293237     2.72353810
H      -2.95025061    -8.21907427     1.63194863
H      -4.23887977     1.20879021    -0.59725322
H      -3.99229557     1.27668169     1.13585408
H      -2.61055871     3.11235825     1.09154042
H      -2.64316029     3.30559358    -0.65877011
H      -0.62811450     4.31821637     0.09254350
H      -0.26572752     3.05386194     1.24215109
H       0.74911640     3.38209668    -1.35934790
H       0.02104139     1.28228901    -2.59495875
H      -1.13839391     2.59595907    -2.49005488
H      -1.21537211    -0.09723898    -1.15373005
H      -2.45873403     0.78010953    -2.03804775
H       4.24969678    -0.52071645     0.88557523
H       1.98865735    -0.83747056     1.90024185
H       0.10917898     0.57824598     1.12834139
H       4.57754799     3.15154940    -1.61800223
H       4.22488822     1.84831671    -2.80730505
H       7.99763017     2.76410490    -5.39998022
H       9.53326008     2.33674647    -1.38391345
H       7.23119490     2.10114774    -0.53482432
