71
danuglipron RDKit ETKDGv3+MMFF94 conformer 6 (cid=5, E_mmff=55.87 kcal/mol)
C      -4.22258339     0.39723508    -0.12409764
C      -5.24458688     1.53026756    -0.11915833
O      -5.82621292     1.03795396     1.11555409
C      -5.13831983    -0.23928050     0.93325779
C      -4.54116984    -0.71976130     2.24786711
N      -3.83758254    -1.99149002     2.13068160
C      -4.44072694    -3.20869599     1.88463263
C      -3.38456544    -4.11168414     1.83479663
C      -3.63936520    -5.46602048     1.57305228
C      -4.96326581    -5.88241450     1.37713651
C      -6.01911215    -4.96421252     1.44439655
C      -5.77459790    -3.60352233     1.70288869
C      -7.42970560    -5.38238837     1.24605817
O      -8.39981831    -4.64778103     1.27554105
O      -7.55989573    -6.70115718     1.01912103
N      -2.19341337    -3.48641229     2.07891402
C      -2.48562096    -2.21644803     2.29716349
C      -1.47964476    -1.16918169     2.68250446
N      -1.15729110    -0.24432947     1.58037946
C      -0.58032405    -0.96831137     0.43189605
C       0.12557416    -0.03386902    -0.55058664
C       1.27568396     0.74018084     0.11698219
C       1.14385076     0.76372302     1.64688608
C      -0.32369539     0.87348323     2.05003430
C       2.65205272     0.26820511    -0.30948635
N       3.45926896     1.20918833    -0.85905225
C       4.69301015     0.82648150    -1.25156934
C       5.17802478    -0.46186638    -1.11685226
C       4.34703078    -1.41786197    -0.54815541
C       3.06795084    -1.05181417    -0.13780804
O       5.55173663     1.74755830    -1.81590188
C       4.95767614     3.03937183    -1.96928660
C       5.97444076     3.98686430    -2.56229163
C       5.56747983     4.96801981    -3.47060039
C       6.46960274     5.87953121    -4.01338962
C       7.81291217     5.82708564    -3.63802130
C       8.23800635     4.86407329    -2.71633240
C       7.32312720     3.95397872    -2.17713304
C       8.75085660     6.75975093    -4.18950396
N       9.51050866     7.51548850    -4.63491823
F       4.28014791     5.04964734    -3.83503077
H      -3.23678842     0.70846808     0.22253596
H      -4.13436074    -0.15359742    -1.06297035
H      -5.97459797     1.51448756    -0.93404112
H      -4.82977679     2.53488947    -0.00434457
H      -5.84602094    -0.95841114     0.50145439
H      -5.33270773    -0.87689195     2.99072905
H      -3.86162379     0.02843820     2.66476432
H      -2.81819923    -6.17353736     1.53246446
H      -5.15524936    -6.93420628     1.17716198
H      -6.59369698    -2.89253571     1.76124205
H      -8.52599278    -6.82730710     0.91158289
H      -1.88521553    -0.61418471     3.53794736
H      -0.56821255    -1.66376277     3.04412488
H      -1.38210239    -1.48542963    -0.10842390
H       0.12849792    -1.73588627     0.76631760
H      -0.61231128     0.68691646    -0.92961144
H       0.46885718    -0.59837663    -1.42584015
H       1.18243116     1.77946542    -0.23177206
H       1.70675751     1.61447802     2.05095958
H       1.57803930    -0.13395353     2.10574061
H      -0.73714611     1.79440896     1.61875470
H      -0.39487943     1.00682820     3.13662876
H       6.17858349    -0.71366347    -1.44813516
H       4.69148140    -2.44068498    -0.42483040
H       2.41676500    -1.79462765     0.31014654
H       4.09159992     2.96228375    -2.63855956
H       4.64888507     3.44481706    -0.99716801
H       6.10953985     6.62170310    -4.72084095
H       9.28174271     4.81540940    -2.40928420
H       7.66825751     3.21487720    -1.45561152
