71
danuglipron PubChem CID 134611040 precomputed 3D conformer
F       5.81140000    -1.58720000    -1.85810000
O      -6.88480000     2.59740000     2.04080000
O       5.41940000     1.15700000    -0.39390000
O      -8.10850000    -3.07820000    -1.15240000
O      -6.90590000    -4.94270000    -1.64640000
N      -1.26660000     2.06010000     0.31190000
N      -4.62210000     0.44320000     0.03270000
N      -2.58400000    -0.42730000    -0.13510000
N       3.38350000     2.26630000    -0.49120000
N       8.96120000    -5.11210000     1.58280000
C       1.20530000     3.36780000    -0.56740000
C       0.49530000     2.29710000    -1.41060000
C       0.85730000     3.17790000     0.91720000
C      -1.00740000     2.27220000    -1.11890000
C      -0.65840000     3.12180000     1.12550000
C      -2.70540000     1.98270000     0.56490000
C      -5.86520000     1.60040000     1.77190000
C      -5.66320000     1.41650000     0.27430000
C      -3.27640000     0.65210000     0.15250000
C      -6.67840000     0.52300000     2.49800000
C       2.70240000     3.39020000    -0.80850000
C      -7.58670000     1.67730000     2.90940000
C      -4.81080000    -0.85760000    -0.35840000
C      -3.52390000    -1.37960000    -0.45600000
C       3.28930000     4.53100000    -1.33160000
C      -5.96140000    -1.59970000    -0.62660000
C      -3.35620000    -2.71990000    -0.84310000
C      -5.77580000    -2.93190000    -1.01050000
C       4.66350000     4.51760000    -1.54300000
C       4.71730000     2.29060000    -0.71020000
C      -4.49730000    -3.48400000    -1.11740000
C       5.39860000     3.37990000    -1.22900000
C      -6.93840000    -3.75730000    -1.30140000
C       4.67170000     0.06830000     0.13510000
C       5.60740000    -1.06230000     0.44820000
C       6.13480000    -1.84070000    -0.58220000
C       5.94990000    -1.33400000     1.77280000
C       7.00460000    -2.89070000    -0.28790000
C       6.81950000    -2.38410000     2.06710000
C       7.34680000    -3.16250000     1.03680000
C       8.23760000    -4.23830000     1.33810000
H       0.79470000     4.34140000    -0.87190000
H       0.91940000     1.30480000    -1.20630000
H       0.65710000     2.49190000    -2.47810000
H       1.27730000     4.00000000     1.50990000
H       1.30940000     2.25350000     1.30110000
H      -1.44620000     1.46790000    -1.72040000
H      -1.45930000     3.21230000    -1.46270000
H      -1.10120000     4.09820000     0.88880000
H      -0.84270000     2.92990000     2.18970000
H      -2.87890000     2.06690000     1.64440000
H      -3.22940000     2.81680000     0.08460000
H      -4.95560000     1.88020000     2.31420000
H      -5.36470000     2.35590000    -0.20200000
H      -6.58440000     1.09600000    -0.22250000
H      -6.15860000     0.02550000     3.32040000
H      -7.16830000    -0.22090000     1.86510000
H      -8.63660000     1.57100000     2.62370000
H      -7.51190000     1.98440000     3.95660000
H       2.71110000     5.41570000    -1.57510000
H      -6.93980000    -1.14350000    -0.53450000
H      -2.36690000    -3.15780000    -0.92890000
H       5.16080000     5.39210000    -1.95170000
H      -4.36190000    -4.52120000    -1.41630000
H       6.47100000     3.35330000    -1.38810000
H       3.92530000    -0.27580000    -0.59310000
H       4.14270000     0.37740000     1.04620000
H      -8.88590000    -3.64280000    -1.35040000
H       5.54860000    -0.73470000     2.58570000
H       7.40730000    -3.48830000    -1.10210000
H       7.07720000    -2.58330000     3.10460000
