71
danuglipron RDKit ETKDGv3+MMFF94 conformer 2 (cid=4, E_mmff=51.50 kcal/mol)
C      -1.67353215    -4.19008739     1.85247234
C      -1.13282625    -5.22475601     0.87390979
O      -2.47206755    -5.65629599     0.52797332
C      -3.04299434    -4.51747581     1.23950414
C      -3.68671942    -3.55084351     0.25149285
N      -4.01967902    -2.25664361     0.83270188
C      -4.96439693    -2.04208629     1.81466728
C      -4.89580774    -0.67481083     2.06175408
C      -5.71872620    -0.10334617     3.04329706
C      -6.60462868    -0.92860959     3.74813644
C      -6.67512309    -2.30155278     3.47843187
C      -5.85275846    -2.88621378     2.49868749
C      -7.64347290    -3.11304605     4.25856240
O      -8.39898940    -2.69491152     5.11601180
O      -7.61791142    -4.41667095     3.92820254
N      -3.98447210    -0.07191238     1.23898042
C      -3.49116771    -1.03105957     0.47654939
C      -2.51137250    -0.81097211    -0.64204634
N      -1.16075704    -1.31339775    -0.33091098
C      -0.30698826    -1.34703292    -1.52774817
C       0.13005427     0.03268309    -2.02399121
C       0.81138016     0.82451138    -0.90057314
C      -0.06448219     0.85611506     0.35850098
C      -0.50302960    -0.55638399     0.75035620
C       1.22695952     2.20700445    -1.35798848
N       2.56170271     2.43380983    -1.43113883
C       2.96820217     3.65340704    -1.84368360
C       2.10370839     4.67572060    -2.19214855
C       0.73847594     4.43323140    -2.11702121
C       0.29091530     3.18393357    -1.69660456
O       4.31612959     3.93614731    -1.93025815
C       5.14096637     2.81777762    -1.59278196
C       6.59239497     3.22847022    -1.67888940
C       7.54608879     2.32818483    -2.16169190
C       8.89694086     2.66048484    -2.22548217
C       9.31951814     3.91677492    -1.78798041
C       8.38333876     4.82653217    -1.28448301
C       7.02923617     4.48193218    -1.22453040
C      10.70698579     4.27031818    -1.84870073
N      11.83057289     4.55635528    -1.89701078
F       7.16815442     1.10980155    -2.57335588
H      -1.30011725    -3.17639848     1.71666559
H      -1.57619384    -4.47462589     2.90447171
H      -0.61031230    -4.82003618     0.00197631
H      -0.54690160    -6.03165428     1.32145816
H      -3.75455576    -4.87824937     1.99131209
H      -4.62411754    -3.96874867    -0.13486475
H      -3.03495787    -3.39135713    -0.61155686
H      -5.66805376     0.96197977     3.24087255
H      -7.24632618    -0.48650850     4.50865515
H      -5.90887187    -3.94687650     2.27872655
H      -8.29515526    -4.81809853     4.51262480
H      -2.90557174    -1.32196868    -1.53013039
H      -2.50076232     0.25557702    -0.89558716
H      -0.81168189    -1.88868139    -2.33729333
H       0.58623012    -1.94232886    -1.29658765
H       0.82245803    -0.08942195    -2.86658360
H      -0.73711240     0.57694241    -2.41769316
H       1.73145457     0.28217643    -0.63620757
H       0.49633778     1.30395688     1.18869127
H      -0.94785892     1.48855595     0.21276253
H       0.38287203    -1.12324960     1.06694513
H      -1.13854126    -0.51016895     1.64214446
H       2.48580119     5.63669755    -2.51595860
H       0.02771369     5.21012711    -2.38377862
H      -0.77469990     2.98576463    -1.63779382
H       4.94657493     1.99900895    -2.29685927
H       4.94693331     2.48529432    -0.56487133
H       9.60269493     1.93100956    -2.61371707
H       8.69934709     5.80788418    -0.93358074
H       6.31355175     5.19831167    -0.82372495
