71
danuglipron RDKit ETKDGv3+MMFF94 conformer 1 (cid=8, E_mmff=50.74 kcal/mol)
C      -4.42909021    -5.29014580     0.38815453
C      -3.54917757    -6.43545646    -0.10364673
O      -2.40240563    -5.55498521    -0.20581578
C      -3.26994987    -4.39013736    -0.07018969
C      -2.68847810    -3.39109209     0.91736772
N      -3.56044835    -2.24159627     1.11662882
C      -4.46590469    -2.09190688     2.14518891
C      -5.07348195    -0.86683216     1.89060161
C      -6.07505722    -0.39533658     2.75235963
C      -6.44045582    -1.17327367     3.85954493
C      -5.81618239    -2.40260574     4.10659559
C      -4.81090538    -2.88472005     3.24947072
C      -6.18676068    -3.24607588     5.27061184
O      -5.71872658    -4.33864358     5.53377998
O      -7.12650363    -2.68282553     6.04968613
N      -4.55533896    -0.28550051     0.76586482
C      -3.62731159    -1.11373091     0.32189737
C      -2.76000042    -0.86096969    -0.87900865
N      -1.33875726    -0.65468927    -0.53292030
C      -0.52772951    -0.63366529    -1.75730467
C       0.96018253    -0.52524259    -1.43339437
C       1.30420254     0.65653926    -0.51955850
C       0.30642953     0.79220674     0.63789889
C      -1.15625139     0.58326598     0.24219326
C       1.57522098     1.94318714    -1.28043022
N       2.87565401     2.33408357    -1.30671207
C       3.18822258     3.46941533    -1.96639746
C       2.26084272     4.25244734    -2.62589648
C       0.93407046     3.84727860    -2.60290403
C       0.58513407     2.68048174    -1.92460990
O       4.49871526     3.89793690    -2.01556473
C       5.38276655     3.06830430    -1.25676778
C       6.79280452     3.59318181    -1.39487743
C       7.65942444     3.56799013    -0.29881861
C       8.97491450     4.01405774    -0.39825227
C       9.45159823     4.48890468    -1.62114541
C       8.60555194     4.50636406    -2.73539242
C       7.28640869     4.05543606    -2.62419862
C      10.80337122     4.95068940    -1.73604826
N      11.89807716     5.32400802    -1.83034768
F       7.23091039     3.10256570     0.88283177
H      -4.61865885    -5.31385522     1.46373333
H      -5.36805691    -5.15523392    -0.15353456
H      -3.81638195    -6.85190291    -1.07943771
H      -3.38304581    -7.24075054     0.61644229
H      -3.43629271    -3.95174889    -1.06268950
H      -1.71934318    -3.02314091     0.56933661
H      -2.50873538    -3.85413378     1.89391691
H      -6.55146044     0.55943465     2.55721398
H      -7.21735603    -0.80241692     4.52435410
H      -4.32243207    -3.83447367     3.44545034
H      -7.26357351    -3.33744907     6.76619039
H      -2.85941131    -1.72409441    -1.54826327
H      -3.15164817     0.00373072    -1.43114648
H      -0.67574311    -1.57015847    -2.31005765
H      -0.83847415     0.17637715    -2.42679254
H       1.26197274    -1.45111995    -0.92387158
H       1.54003959    -0.48448373    -2.36367279
H       2.26690716     0.40269800    -0.04982536
H       0.41947200     1.76068533     1.14036328
H       0.55635497     0.02791335     1.38744533
H      -1.53570578     1.45167167    -0.30612028
H      -1.73115008     0.53427526     1.17477420
H       2.56472069     5.15502512    -3.14254044
H       0.17353107     4.43531742    -3.10897591
H      -0.45268393     2.37497066    -1.91895913
H       5.37057046     2.03723037    -1.63296626
H       5.08201827     3.08805043    -0.20176982
H       9.61155825     3.98144512     0.48184914
H       8.96559364     4.86823218    -3.69736761
H       6.64182942     4.06899198    -3.50186363
