71
danuglipron RDKit ETKDGv3+MMFF94 conformer 3 (cid=19, E_mmff=51.83 kcal/mol)
C      -2.90111809    -4.01547080     3.96424784
C      -2.47438250    -5.46634398     4.16807507
O      -2.64788696    -5.75026284     2.75737226
C      -3.37529313    -4.49743753     2.58393430
C      -2.88970422    -3.75388697     1.34839706
N      -3.49104219    -2.43306344     1.22415833
C      -4.80408179    -2.19293653     0.87524798
C      -4.92334127    -0.80841148     0.92329064
C      -6.15705341    -0.20727969     0.63436340
C      -7.24428198    -1.02358809     0.29516196
C      -7.10734780    -2.41713705     0.24194772
C      -5.87592540    -3.03113831     0.53174932
C      -8.30134761    -3.21803912    -0.12894015
O      -9.40128002    -2.77584226    -0.40376321
O      -8.06147197    -4.54151538    -0.13420868
N      -3.73322323    -0.22512828     1.26211999
C      -2.86948571    -1.21435579     1.40579936
C      -1.40944817    -1.03041992     1.70845682
N      -0.53242395    -1.44715776     0.59847055
C       0.88267355    -1.44798020     0.99777557
C       1.48517222    -0.05154644     1.16790574
C       1.27806349     0.79081875    -0.09757666
C      -0.19414568     0.78220378    -0.53012591
C      -0.72184175    -0.65045093    -0.62650549
C       1.83282957     2.19087709     0.06304848
N       2.91821709     2.49196770    -0.69174882
C       3.43969427     3.73155712    -0.57294577
C       2.93706142     4.69971311     0.27790595
C       1.82929635     4.38028984     1.05191910
C       1.26816316     3.11070535     0.94644957
O       4.54445940     4.08727824    -1.31950132
C       4.96412855     3.05543557    -2.21644951
C       6.19035845     3.51792069    -2.96873466
C       6.37178826     3.14419569    -4.30320389
C       7.50397224     3.52313404    -5.02004927
C       8.49266439     4.28487063    -4.39530774
C       8.33927923     4.65445178    -3.05459321
C       7.19831190     4.26776848    -2.34416190
C       9.66258104     4.68075740    -5.12215323
N      10.61087911     5.00062139    -5.70955257
F       5.44462641     2.39908428    -4.92111855
H      -2.06968001    -3.30700600     3.96112606
H      -3.69000624    -3.66160257     4.63191971
H      -3.14624510    -6.07570576     4.77986842
H      -1.43948154    -5.60906579     4.48935509
H      -4.45155204    -4.71114993     2.55322215
H      -3.14842337    -4.30649560     0.43756275
H      -1.80183182    -3.65280101     1.36057308
H      -6.25662639     0.87219539     0.67017467
H      -8.20240985    -0.55891744     0.06771485
H      -5.75836007    -4.10880486     0.48648628
H      -8.92154525    -4.93293521    -0.39558907
H      -1.17862919    -1.62363658     2.60122361
H      -1.23955615     0.01575047     1.98860784
H       1.45573938    -1.99265352     0.23586523
H       1.01457500    -2.02270090     1.92288115
H       1.04186558     0.43972599     2.04268788
H       2.55752596    -0.14487163     1.38169795
H       1.85032932     0.30766429    -0.90356283
H      -0.81698644     1.35674914     0.16533972
H      -0.29617338     1.27212851    -1.50674424
H      -1.77433791    -0.63631253    -0.93161246
H      -0.20093866    -1.16274057    -1.44663135
H       3.39695983     5.67932204     0.33388815
H       1.40431418     5.11390425     1.73092186
H       0.40256998     2.85306613     1.54864337
H       4.15527689     2.84227210    -2.92660159
H       5.23294054     2.14510760    -1.66529273
H       7.59995936     3.21470677    -6.05765022
H       9.10551327     5.24316129    -2.55227838
H       7.09712085     4.55738777    -1.29926353
